(set-logic QF_S)
(declare-fun var_0xINPUT_233169 () String)
(assert (and (= (len var_0xINPUT_233169) 0) (= (len var_0xINPUT_233169) 0) (not (= var_0xINPUT_233169 "Example:")) (not (= var_0xINPUT_233169 "4PH2ujcENG"))))
(check-sat var_0xINPUT_233169)